c E1(2,0) E2(0,2) E2(2,0) E1(0,2) E2(0,3) E1(0,3) E1(3,0) E2(3,0) E1(4,0) E2(4,0) E2(0,4) E1(0,4) E2(1,0) E2(0,1) E1(1,0) E1(0,1) E1(2,3) E2(3,2) E1(3,2) E2(2,3) E2(2,4) E1(2,4) E2(4,2) E1(4,2) E1(2,1) E2(2,1) E2(1,2) E1(1,2) E2(4,3) E2(3,4) E1(4,3) E1(3,4) E1(3,1) E2(3,1) E2(1,3) E1(1,3) E2(4,1) E2(1,4) E1(4,1) E1(1,4)
c 1 2 3 4 5 6 7 8 9 10 11 12 13 14 15 16 17 18 19 20 21 22 23 24 25 26 27 28 29 30 31 32 33 34 35 36 37 38 39 40
p cnf 40 530
16 -16 0
16 -15 0
4 -4 0
4 -1 0
6 -6 0
6 -7 0
12 -12 0
12 -9 0
15 -16 0
15 -15 0
28 -28 0
28 -25 0
36 -36 0
36 -33 0
40 -40 0
40 -39 0
1 -4 0
1 -1 0
25 -28 0
25 -25 0
17 -17 0
17 -19 0
22 -22 0
22 -24 0
7 -6 0
7 -7 0
33 -36 0
33 -33 0
19 -17 0
19 -19 0
32 -32 0
32 -31 0
9 -12 0
9 -9 0
39 -40 0
39 -39 0
24 -22 0
24 -24 0
31 -32 0
31 -31 0
14 -14 0
14 -13 0
2 -2 0
2 -3 0
5 -5 0
5 -8 0
11 -11 0
11 -10 0
13 -14 0
13 -13 0
27 -27 0
27 -26 0
35 -35 0
35 -34 0
38 -38 0
38 -37 0
3 -2 0
3 -3 0
26 -27 0
26 -26 0
20 -20 0
20 -18 0
21 -21 0
21 -23 0
8 -5 0
8 -8 0
34 -35 0
34 -34 0
18 -20 0
18 -18 0
30 -30 0
30 -29 0
10 -11 0
10 -10 0
37 -38 0
37 -37 0
23 -21 0
23 -23 0
29 -30 0
29 -29 0
-16 -14 0
-16 -13 0
-4 -2 0
-4 -3 0
-6 -5 0
-6 -8 0
-12 -11 0
-12 -10 0
-15 -14 0
-15 -13 0
-28 -27 0
-28 -26 0
-36 -35 0
-36 -34 0
-40 -38 0
-40 -37 0
-1 -2 0
-1 -3 0
-25 -27 0
-25 -26 0
-17 -20 0
-17 -18 0
-22 -21 0
-22 -23 0
-7 -5 0
-7 -8 0
-33 -35 0
-33 -34 0
-19 -20 0
-19 -18 0
-32 -30 0
-32 -29 0
-9 -11 0
-9 -10 0
-39 -38 0
-39 -37 0
-24 -21 0
-24 -23 0
-31 -30 0
-31 -29 0
16 14 -16 0
16 14 -15 0
16 14 -14 0
16 14 -13 0
16 13 -16 0
16 13 -15 0
16 13 -14 0
16 13 -13 0
4 2 -4 0
4 2 -1 0
4 2 -2 0
4 2 -3 0
4 3 -4 0
4 3 -1 0
4 3 -2 0
4 3 -3 0
6 5 -6 0
6 5 -7 0
6 5 -5 0
6 5 -8 0
6 8 -6 0
6 8 -7 0
6 8 -5 0
6 8 -8 0
12 11 -12 0
12 11 -9 0
12 11 -11 0
12 11 -10 0
12 10 -12 0
12 10 -9 0
12 10 -11 0
12 10 -10 0
15 14 -16 0
15 14 -15 0
15 14 -14 0
15 14 -13 0
15 13 -16 0
15 13 -15 0
15 13 -14 0
15 13 -13 0
28 27 -28 0
28 27 -25 0
28 27 -27 0
28 27 -26 0
28 26 -28 0
28 26 -25 0
28 26 -27 0
28 26 -26 0
36 35 -36 0
36 35 -33 0
36 35 -35 0
36 35 -34 0
36 34 -36 0
36 34 -33 0
36 34 -35 0
36 34 -34 0
40 38 -40 0
40 38 -39 0
40 38 -38 0
40 38 -37 0
40 37 -40 0
40 37 -39 0
40 37 -38 0
40 37 -37 0
1 2 -4 0
1 2 -1 0
1 2 -2 0
1 2 -3 0
1 3 -4 0
1 3 -1 0
1 3 -2 0
1 3 -3 0
25 27 -28 0
25 27 -25 0
25 27 -27 0
25 27 -26 0
25 26 -28 0
25 26 -25 0
25 26 -27 0
25 26 -26 0
17 20 -17 0
17 20 -19 0
17 20 -20 0
17 20 -18 0
17 18 -17 0
17 18 -19 0
17 18 -20 0
17 18 -18 0
22 21 -22 0
22 21 -24 0
22 21 -21 0
22 21 -23 0
22 23 -22 0
22 23 -24 0
22 23 -21 0
22 23 -23 0
7 5 -6 0
7 5 -7 0
7 5 -5 0
7 5 -8 0
7 8 -6 0
7 8 -7 0
7 8 -5 0
7 8 -8 0
33 35 -36 0
33 35 -33 0
33 35 -35 0
33 35 -34 0
33 34 -36 0
33 34 -33 0
33 34 -35 0
33 34 -34 0
19 20 -17 0
19 20 -19 0
19 20 -20 0
19 20 -18 0
19 18 -17 0
19 18 -19 0
19 18 -20 0
19 18 -18 0
32 30 -32 0
32 30 -31 0
32 30 -30 0
32 30 -29 0
32 29 -32 0
32 29 -31 0
32 29 -30 0
32 29 -29 0
9 11 -12 0
9 11 -9 0
9 11 -11 0
9 11 -10 0
9 10 -12 0
9 10 -9 0
9 10 -11 0
9 10 -10 0
39 38 -40 0
39 38 -39 0
39 38 -38 0
39 38 -37 0
39 37 -40 0
39 37 -39 0
39 37 -38 0
39 37 -37 0
24 21 -22 0
24 21 -24 0
24 21 -21 0
24 21 -23 0
24 23 -22 0
24 23 -24 0
24 23 -21 0
24 23 -23 0
31 30 -32 0
31 30 -31 0
31 30 -30 0
31 30 -29 0
31 29 -32 0
31 29 -31 0
31 29 -30 0
31 29 -29 0
16 4 6 12 0
15 28 36 40 0
1 25 17 22 0
7 33 19 32 0
9 39 24 31 0
14 2 5 11 0
13 27 35 38 0
3 26 20 21 0
8 34 18 30 0
10 37 23 29 0
16 -16 -15 0
16 -16 -14 0
16 -16 -13 0
16 -15 -14 0
16 -15 -13 0
4 -4 -1 0
4 -4 -2 0
4 -4 -3 0
4 -1 -2 0
4 -1 -3 0
6 -6 -7 0
6 -6 -5 0
6 -6 -8 0
6 -7 -5 0
6 -7 -8 0
12 -12 -9 0
12 -12 -11 0
12 -12 -10 0
12 -9 -11 0
12 -9 -10 0
15 -16 -15 0
15 -16 -14 0
15 -16 -13 0
15 -15 -14 0
15 -15 -13 0
28 -28 -25 0
28 -28 -27 0
28 -28 -26 0
28 -25 -27 0
28 -25 -26 0
36 -36 -33 0
36 -36 -35 0
36 -36 -34 0
36 -33 -35 0
36 -33 -34 0
40 -40 -39 0
40 -40 -38 0
40 -40 -37 0
40 -39 -38 0
40 -39 -37 0
1 -4 -1 0
1 -4 -2 0
1 -4 -3 0
1 -1 -2 0
1 -1 -3 0
25 -28 -25 0
25 -28 -27 0
25 -28 -26 0
25 -25 -27 0
25 -25 -26 0
17 -17 -19 0
17 -17 -20 0
17 -17 -18 0
17 -19 -20 0
17 -19 -18 0
22 -22 -24 0
22 -22 -21 0
22 -22 -23 0
22 -24 -21 0
22 -24 -23 0
7 -6 -7 0
7 -6 -5 0
7 -6 -8 0
7 -7 -5 0
7 -7 -8 0
33 -36 -33 0
33 -36 -35 0
33 -36 -34 0
33 -33 -35 0
33 -33 -34 0
19 -17 -19 0
19 -17 -20 0
19 -17 -18 0
19 -19 -20 0
19 -19 -18 0
32 -32 -31 0
32 -32 -30 0
32 -32 -29 0
32 -31 -30 0
32 -31 -29 0
9 -12 -9 0
9 -12 -11 0
9 -12 -10 0
9 -9 -11 0
9 -9 -10 0
39 -40 -39 0
39 -40 -38 0
39 -40 -37 0
39 -39 -38 0
39 -39 -37 0
24 -22 -24 0
24 -22 -21 0
24 -22 -23 0
24 -24 -21 0
24 -24 -23 0
31 -32 -31 0
31 -32 -30 0
31 -32 -29 0
31 -31 -30 0
31 -31 -29 0
14 -16 -14 0
14 -16 -13 0
14 -15 -14 0
14 -15 -13 0
14 -14 -13 0
2 -4 -2 0
2 -4 -3 0
2 -1 -2 0
2 -1 -3 0
2 -2 -3 0
5 -6 -5 0
5 -6 -8 0
5 -7 -5 0
5 -7 -8 0
5 -5 -8 0
11 -12 -11 0
11 -12 -10 0
11 -9 -11 0
11 -9 -10 0
11 -11 -10 0
13 -16 -14 0
13 -16 -13 0
13 -15 -14 0
13 -15 -13 0
13 -14 -13 0
27 -28 -27 0
27 -28 -26 0
27 -25 -27 0
27 -25 -26 0
27 -27 -26 0
35 -36 -35 0
35 -36 -34 0
35 -33 -35 0
35 -33 -34 0
35 -35 -34 0
38 -40 -38 0
38 -40 -37 0
38 -39 -38 0
38 -39 -37 0
38 -38 -37 0
3 -4 -2 0
3 -4 -3 0
3 -1 -2 0
3 -1 -3 0
3 -2 -3 0
26 -28 -27 0
26 -28 -26 0
26 -25 -27 0
26 -25 -26 0
26 -27 -26 0
20 -17 -20 0
20 -17 -18 0
20 -19 -20 0
20 -19 -18 0
20 -20 -18 0
21 -22 -21 0
21 -22 -23 0
21 -24 -21 0
21 -24 -23 0
21 -21 -23 0
8 -6 -5 0
8 -6 -8 0
8 -7 -5 0
8 -7 -8 0
8 -5 -8 0
34 -36 -35 0
34 -36 -34 0
34 -33 -35 0
34 -33 -34 0
34 -35 -34 0
18 -17 -20 0
18 -17 -18 0
18 -19 -20 0
18 -19 -18 0
18 -20 -18 0
30 -32 -30 0
30 -32 -29 0
30 -31 -30 0
30 -31 -29 0
30 -30 -29 0
10 -12 -11 0
10 -12 -10 0
10 -9 -11 0
10 -9 -10 0
10 -11 -10 0
37 -40 -38 0
37 -40 -37 0
37 -39 -38 0
37 -39 -37 0
37 -38 -37 0
23 -22 -21 0
23 -22 -23 0
23 -24 -21 0
23 -24 -23 0
23 -21 -23 0
29 -32 -30 0
29 -32 -29 0
29 -31 -30 0
29 -31 -29 0
29 -30 -29 0
-16 -15 -14 0
-16 -15 -13 0
-16 -14 -13 0
-4 -1 -2 0
-4 -1 -3 0
-4 -2 -3 0
-6 -7 -5 0
-6 -7 -8 0
-6 -5 -8 0
-12 -9 -11 0
-12 -9 -10 0
-12 -11 -10 0
-15 -14 -13 0
-28 -25 -27 0
-28 -25 -26 0
-28 -27 -26 0
-36 -33 -35 0
-36 -33 -34 0
-36 -35 -34 0
-40 -39 -38 0
-40 -39 -37 0
-40 -38 -37 0
-1 -2 -3 0
-25 -27 -26 0
-17 -19 -20 0
-17 -19 -18 0
-17 -20 -18 0
-22 -24 -21 0
-22 -24 -23 0
-22 -21 -23 0
-7 -5 -8 0
-33 -35 -34 0
-19 -20 -18 0
-32 -31 -30 0
-32 -31 -29 0
-32 -30 -29 0
-9 -11 -10 0
-39 -38 -37 0
-24 -21 -23 0
-31 -30 -29 0
